(set-logic QF_S)
(declare-fun var0 () String)
(declare-fun var1 () Int)
(declare-fun var2 () Bool)
(declare-fun var3 () String)
(declare-fun var4 () Int)
(declare-fun var5 () Bool)
(declare-fun var6 () String)
(declare-fun var7 () Int)
(declare-fun var8 () Bool)
(assert (str.suffixof (str.replace var0 var0 var3) (str.replace "9V)K@GF&|[" var3 var0)))
(assert (str.suffixof (str.at (str.replace var0 "@KSobj3ntp" var3) (str.len var3)) (str.substr (str.substr var3 4 var7) (str.len var0) (str.len var6))))
(assert (str.suffixof (str.at "&|QKf""-vV9" var4) (str.replace "M>Yc/\\I5ou" var6 var6)))
(assert (< (str.len var6) (str.len var0)))
(check-sat)